c This is a random SAT instance with 10 variables and 20 clauses
p cnf 10 20
-2 -1 -8 6 7 -3 -4 5 0
-9 -8 -1 7 0
-7 3 -10 -6 -3 -4 -1 0
9 3 0
9 -6 -7 -4 -10 0
-6 4 9 -10 -4 -9 1 2 6 5 0
3 -6 -3 0
-6 -3 2 9 8 -8 10 -7 -9 0
2 -8 4 3 7 0
6 1 0
7 2 0
-3 -2 7 0
10 -2 -6 2 3 0
-4 -8 9 6 1 -3 -1 5 7 -2 0
8 2 6 -6 1 -7 4 0
2 0
1 8 4 9 0
-8 -1 2 0
4 6 -3 -6 3 -2 1 0
7 2 -8 -1 1 -10 -2 0